networks/zoo_86_1806/zoo_86_1806-lower.txt
Number of groups: 43
Flow 1: {1 5 0} {5 6 0} {6 8 0} {8 7 0} {7 2 0} {2 45 0} 
Flow 2: {1 4 0} {4 3 0} {3 46 0} 
Flow 3: {4 47 0} 
Flow 4: {5 48 0} 
Flow 5: {6 49 0} 
Flow 6: {7 50 0} 
Flow 7: {8 51 0} 
Flow 8: {6 9 0} {9 52 0} 
Flow 9: {9 29 0} {29 10 0} {10 53 0} 
Flow 10: {3 35 0} {35 34 0} {40 39 0} {39 38 0} {38 11 0} {11 54 0} 
Flow 10: {34 40 0} Flow 11: {38 12 0} {12 55 0} 
Flow 12: {2 13 0} {13 56 0} 
Flow 13: {7 14 0} {14 57 0} 
Flow 14: {14 15 0} {15 58 0} 
Flow 15: {39 16 0} {16 59 0} 
Flow 16: {1 17 0} {17 60 0} 
Flow 17: {17 18 0} {18 61 0} 
Flow 18: {39 37 0} {37 19 0} {19 62 0} 
Flow 19: {37 20 0} {20 63 0} 
Flow 20: {39 21 0} {21 64 0} 
Flow 21: {39 22 0} {22 65 0} 
Flow 22: {39 23 0} {23 66 0} 
Flow 23: {7 24 0} {24 67 0} 
Flow 24: {24 25 0} {25 68 0} 
Flow 25: {33 26 0} {26 69 0} 
Flow 25: {30 28 0} {28 32 0} {32 33 0} {29 30 0} Flow 26: {26 27 0} {27 70 0} 
Flow 27: {28 71 0} 
Flow 28: {29 72 0} 
Flow 29: {30 73 0} 
Flow 30: {25 31 0} {31 74 0} 
Flow 31: {32 75 0} 
Flow 32: {33 76 0} 
Flow 33: {34 77 0} 
Flow 34: {35 78 0} 
Flow 35: {17 36 0} {36 79 0} 
Flow 36: {37 80 0} 
Flow 37: {38 81 0} 
Flow 38: {39 82 0} 
Flow 39: {40 83 0} 
Flow 40: {40 43 0} {43 42 0} {42 41 0} {41 84 0} 
Flow 41: {42 85 0} 
Flow 42: {43 86 0} 
Flow 43: {8 6 0} {6 5 0} {5 1 0} {1 44 0} 
Flow 43: {2 7 0} {7 8 0} Flow 44: {13 43 0} {43 40 0} {40 34 0} {34 35 0} {35 3 0} Flow 57: {15 16 0} Flow 67: {31 32 0} Flow 69: {32 28 0} Flow 85: {3 4 0} {4 1 0} Flow 86: {43 13 0} {13 2 0} Flow 97: {16 15 0} {15 14 0} Flow 220: {16 39 0} Flow 337: {9 6 0} Flow 366: {32 31 0} Flow 379: {10 29 0} {29 9 0} Flow 402: {31 25 0} Flow 421: {11 38 0} {38 39 0} {39 40 0} Flow 425: {14 7 0} Flow 463: {12 38 0} Flow 673: {17 1 0} Flow 715: {18 17 0} Flow 757: {19 37 0} {37 39 0} Flow 799: {20 37 0} Flow 841: {21 39 0} Flow 883: {22 39 0} Flow 925: {23 39 0} Flow 967: {24 7 0} Flow 995: {28 30 0} Flow 1009: {25 24 0} Flow 1018: {30 29 0} Flow 1051: {26 33 0} {33 32 0} Flow 1093: {27 26 0} Flow 1471: {36 17 0} Flow 1681: {41 42 0} {42 43 0} Time taken running everything: 1 seconds
