networks/zoo_86_1806/zoo_86_1806-lower.sol
<?xml version = "1.0" encoding="UTF-8" standalone="yes"?>
<CPLEXSolution version="1.2">
 <header
   problemName="networks/zoo_86_1806/zoo_86_1806-lower.lp"
   solutionName="incumbent"
   solutionIndex="-1"
   objectiveValue="43"
   solutionTypeValue="3"
   solutionTypeString="primal"
   solutionStatusValue="101"
   solutionStatusString="integer optimal solution"
   solutionMethodString="mip"
   primalFeasible="1"
   dualFeasible="1"
   MIPNodes="0"
   MIPIterations="0"
   writeLevel="3"/>
 <quality
   epInt="1.0000000000000001e-05"
   epRHS="9.9999999999999995e-07"
   maxIntInfeas="0"
   maxPrimalInfeas="0"
   maxX="1"
   maxSlack="1"/>
 <variables>
  <variable name="Y(1,2)" index="1" value="1"/>
  <variable name="Y(2,3)" index="88" value="1"/>
  <variable name="Y(3,4)" index="175" value="1"/>
  <variable name="Y(4,5)" index="262" value="1"/>
  <variable name="Y(5,6)" index="349" value="1"/>
  <variable name="Y(6,7)" index="436" value="1"/>
  <variable name="Y(7,8)" index="523" value="1"/>
  <variable name="Y(8,9)" index="610" value="1"/>
  <variable name="Y(9,10)" index="697" value="1"/>
  <variable name="Y(10,11)" index="784" value="1"/>
  <variable name="Y(11,12)" index="871" value="1"/>
  <variable name="Y(12,13)" index="958" value="1"/>
  <variable name="Y(13,14)" index="1045" value="1"/>
  <variable name="Y(14,15)" index="1132" value="1"/>
  <variable name="Y(15,16)" index="1219" value="1"/>
  <variable name="Y(16,17)" index="1306" value="1"/>
  <variable name="Y(17,18)" index="1393" value="1"/>
  <variable name="Y(18,19)" index="1480" value="1"/>
  <variable name="Y(19,20)" index="1567" value="1"/>
  <variable name="Y(20,21)" index="1654" value="1"/>
  <variable name="Y(21,22)" index="1741" value="1"/>
  <variable name="Y(22,23)" index="1828" value="1"/>
  <variable name="Y(23,24)" index="1915" value="1"/>
  <variable name="Y(24,25)" index="2002" value="1"/>
  <variable name="Y(25,26)" index="2089" value="1"/>
  <variable name="Y(26,27)" index="2176" value="1"/>
  <variable name="Y(27,28)" index="2263" value="1"/>
  <variable name="Y(28,29)" index="2350" value="1"/>
  <variable name="Y(29,30)" index="2437" value="1"/>
  <variable name="Y(30,31)" index="2524" value="1"/>
  <variable name="Y(31,32)" index="2611" value="1"/>
  <variable name="Y(32,33)" index="2698" value="1"/>
  <variable name="Y(33,34)" index="2785" value="1"/>
  <variable name="Y(34,35)" index="2872" value="1"/>
  <variable name="Y(35,36)" index="2959" value="1"/>
  <variable name="Y(36,37)" index="3046" value="1"/>
  <variable name="Y(37,38)" index="3133" value="1"/>
  <variable name="Y(38,39)" index="3220" value="1"/>
  <variable name="Y(39,40)" index="3307" value="1"/>
  <variable name="Y(40,41)" index="3394" value="1"/>
  <variable name="Y(41,42)" index="3481" value="1"/>
  <variable name="Y(42,43)" index="3568" value="1"/>
  <variable name="Y(43,1)" index="3612" value="1"/>
  <variable name="X(1,4,2)" index="155317" value="1"/>
  <variable name="X(1,5,1)" index="157122" value="1"/>
  <variable name="X(1,17,16)" index="158943" value="1"/>
  <variable name="X(1,44,43)" index="160776" value="1"/>
  <variable name="X(2,7,43)" index="162582" value="1"/>
  <variable name="X(2,13,12)" index="164357" value="1"/>
  <variable name="X(2,45,1)" index="166152" value="1"/>
  <variable name="X(3,4,85)" index="168042" value="1"/>
  <variable name="X(3,35,10)" index="169773" value="1"/>
  <variable name="X(3,46,2)" index="171571" value="1"/>
  <variable name="X(4,1,85)" index="173460" value="1"/>
  <variable name="X(4,3,2)" index="175183" value="1"/>
  <variable name="X(4,47,3)" index="176990" value="1"/>
  <variable name="X(5,1,43)" index="178836" value="1"/>
  <variable name="X(5,6,1)" index="180600" value="1"/>
  <variable name="X(5,48,4)" index="182409" value="1"/>
  <variable name="X(6,5,43)" index="184254" value="1"/>
  <variable name="X(6,8,1)" index="186018" value="1"/>
  <variable name="X(6,9,8)" index="187831" value="1"/>
  <variable name="X(6,49,5)" index="189634" value="1"/>
  <variable name="X(7,2,1)" index="191436" value="1"/>
  <variable name="X(7,8,43)" index="193284" value="1"/>
  <variable name="X(7,14,13)" index="195060" value="1"/>
  <variable name="X(7,24,23)" index="196876" value="1"/>
  <variable name="X(7,50,6)" index="198665" value="1"/>
  <variable name="X(8,6,43)" index="200508" value="1"/>
  <variable name="X(8,7,1)" index="202272" value="1"/>
  <variable name="X(8,51,7)" index="204084" value="1"/>
  <variable name="X(9,6,337)" index="206220" value="1"/>
  <variable name="X(9,29,9)" index="207698" value="1"/>
  <variable name="X(9,52,8)" index="209503" value="1"/>
  <variable name="X(10,29,379)" index="211680" value="1"/>
  <variable name="X(10,53,9)" index="213116" value="1"/>
  <variable name="X(11,38,421)" index="215334" value="1"/>
  <variable name="X(11,54,10)" index="216729" value="1"/>
  <variable name="X(12,38,463)" index="218988" value="1"/>
  <variable name="X(12,55,11)" index="220342" value="1"/>
  <variable name="X(13,2,86)" index="222223" value="1"/>
  <variable name="X(13,43,44)" index="223987" value="1"/>
  <variable name="X(13,56,12)" index="225761" value="1"/>
  <variable name="X(14,7,425)" index="227980" value="1"/>
  <variable name="X(14,15,14)" index="229375" value="1"/>
  <variable name="X(14,57,13)" index="231180" value="1"/>
  <variable name="X(15,14,97)" index="233070" value="1"/>
  <variable name="X(15,16,57)" index="234836" value="1"/>
  <variable name="X(15,58,14)" index="236599" value="1"/>
  <variable name="X(16,15,97)" index="238488" value="1"/>
  <variable name="X(16,39,220)" index="240417" value="1"/>
  <variable name="X(16,59,15)" index="242018" value="1"/>
  <variable name="X(17,1,673)" index="244482" value="1"/>
  <variable name="X(17,18,17)" index="245632" value="1"/>
  <variable name="X(17,36,35)" index="247456" value="1"/>
  <variable name="X(17,60,16)" index="249243" value="1"/>
  <variable name="X(18,17,715)" index="251748" value="1"/>
  <variable name="X(18,61,17)" index="252856" value="1"/>
  <variable name="X(19,37,757)" index="255402" value="1"/>
  <variable name="X(19,62,18)" index="256469" value="1"/>
  <variable name="X(20,37,799)" index="259056" value="1"/>
  <variable name="X(20,63,19)" index="260082" value="1"/>
  <variable name="X(21,39,841)" index="262710" value="1"/>
  <variable name="X(21,64,20)" index="263695" value="1"/>
  <variable name="X(22,39,883)" index="266364" value="1"/>
  <variable name="X(22,65,21)" index="267308" value="1"/>
  <variable name="X(23,39,925)" index="270018" value="1"/>
  <variable name="X(23,66,22)" index="270921" value="1"/>
  <variable name="X(24,7,967)" index="273672" value="1"/>
  <variable name="X(24,25,24)" index="274535" value="1"/>
  <variable name="X(24,67,23)" index="276340" value="1"/>
  <variable name="X(25,24,1009)" index="279132" value="1"/>
  <variable name="X(25,31,30)" index="279959" value="1"/>
  <variable name="X(25,68,24)" index="281759" value="1"/>
  <variable name="X(26,27,26)" index="283567" value="1"/>
  <variable name="X(26,33,1051)" index="286398" value="1"/>
  <variable name="X(26,69,25)" index="287178" value="1"/>
  <variable name="X(27,26,1093)" index="290052" value="1"/>
  <variable name="X(27,70,26)" index="290791" value="1"/>
  <variable name="X(28,30,995)" index="293566" value="1"/>
  <variable name="X(28,32,25)" index="294402" value="1"/>
  <variable name="X(28,71,27)" index="296210" value="1"/>
  <variable name="X(29,9,379)" index="298368" value="1"/>
  <variable name="X(29,10,9)" index="299804" value="1"/>
  <variable name="X(29,30,25)" index="301626" value="1"/>
  <variable name="X(29,72,28)" index="303435" value="1"/>
  <variable name="X(30,28,25)" index="305238" value="1"/>
  <variable name="X(30,29,1018)" index="308037" value="1"/>
  <variable name="X(30,73,29)" index="308854" value="1"/>
  <variable name="X(31,25,402)" index="311033" value="1"/>
  <variable name="X(31,32,67)" index="312504" value="1"/>
  <variable name="X(31,74,30)" index="314273" value="1"/>
  <variable name="X(32,28,69)" index="316118" value="1"/>
  <variable name="X(32,31,366)" index="318221" value="1"/>
  <variable name="X(32,33,25)" index="319686" value="1"/>
  <variable name="X(32,75,31)" index="321498" value="1"/>
  <variable name="X(33,26,25)" index="323298" value="1"/>
  <variable name="X(33,32,1051)" index="326130" value="1"/>
  <variable name="X(33,76,32)" index="326917" value="1"/>
  <variable name="X(34,35,44)" index="328735" value="1"/>
  <variable name="X(34,40,10)" index="330507" value="1"/>
  <variable name="X(34,77,33)" index="332336" value="1"/>
  <variable name="X(35,3,44)" index="334153" value="1"/>
  <variable name="X(35,34,10)" index="335925" value="1"/>
  <variable name="X(35,78,34)" index="337755" value="1"/>
  <variable name="X(36,17,1471)" index="340998" value="1"/>
  <variable name="X(36,79,35)" index="341368" value="1"/>
  <variable name="X(37,19,18)" index="343157" value="1"/>
  <variable name="X(37,20,19)" index="344964" value="1"/>
  <variable name="X(37,39,757)" index="347508" value="1"/>
  <variable name="X(37,80,36)" index="348593" value="1"/>
  <variable name="X(38,11,10)" index="350373" value="1"/>
  <variable name="X(38,12,11)" index="352180" value="1"/>
  <variable name="X(38,39,421)" index="354396" value="1"/>
  <variable name="X(38,81,37)" index="355818" value="1"/>
  <variable name="X(39,16,15)" index="357602" value="1"/>
  <variable name="X(39,21,20)" index="359413" value="1"/>
  <variable name="X(39,22,21)" index="361220" value="1"/>
  <variable name="X(39,23,22)" index="363027" value="1"/>
  <variable name="X(39,37,18)" index="364829" value="1"/>
  <variable name="X(39,38,10)" index="366627" value="1"/>
  <variable name="X(39,40,421)" index="368844" value="1"/>
  <variable name="X(39,82,38)" index="370267" value="1"/>
  <variable name="X(40,34,44)" index="372079" value="1"/>
  <variable name="X(40,39,10)" index="373851" value="1"/>
  <variable name="X(40,43,40)" index="375687" value="1"/>
  <variable name="X(40,83,39)" index="377492" value="1"/>
  <variable name="X(41,42,1681)" index="380940" value="1"/>
  <variable name="X(41,84,40)" index="381105" value="1"/>
  <variable name="X(42,41,40)" index="382911" value="1"/>
  <variable name="X(42,43,1681)" index="386358" value="1"/>
  <variable name="X(42,85,41)" index="386524" value="1"/>
  <variable name="X(43,13,86)" index="388375" value="1"/>
  <variable name="X(43,40,44)" index="390139" value="1"/>
  <variable name="X(43,42,40)" index="391941" value="1"/>
  <variable name="X(43,86,42)" index="393749" value="1"/>
 </variables>
</CPLEXSolution>
